p tw 84 607
0 1
0 2
0 3
0 4
0 5
0 6
0 7
0 8
0 22
0 30
0 43
0 54
0 55
0 56
0 57
0 58
0 20
0 40
0 46
0 51
0 64
0 65
0 66
0 67
0 16
0 28
0 33
0 53
0 71
0 80
1 2
1 3
1 4
1 5
1 6
1 7
1 8
1 18
1 42
1 46
1 55
1 63
1 77
1 78
1 79
2 3
2 4
2 5
2 6
2 7
2 8
2 18
2 37
2 38
2 39
2 40
2 41
2 42
3 4
3 5
3 6
3 7
3 8
3 10
3 18
3 43
3 44
3 45
3 46
3 47
4 5
4 6
4 7
4 8
4 17
4 18
4 19
4 20
4 21
4 22
4 23
4 24
4 10
4 43
4 44
4 45
4 46
4 47
4 33
4 61
4 66
4 68
4 69
4 80
4 81
5 6
5 7
5 8
5 30
5 31
5 32
5 33
5 34
5 35
5 36
5 11
5 19
5 41
5 48
5 49
5 50
6 7
6 8
6 9
6 10
6 11
6 12
6 13
6 14
6 15
6 16
6 30
6 31
6 32
6 33
6 34
6 35
6 36
6 28
6 43
6 53
6 71
6 80
7 8
7 22
7 25
7 26
7 27
7 28
7 29
7 30
8 18
8 37
8 38
8 39
8 40
8 41
8 42
8 31
8 44
8 49
8 51
8 67
8 82
8 83
9 10
9 11
9 12
9 13
9 14
9 15
9 16
10 11
10 12
10 13
10 14
10 15
10 16
10 18
10 43
10 44
10 45
10 46
10 47
10 31
10 59
10 62
10 66
10 76
11 12
11 13
11 14
11 15
11 16
11 19
11 30
11 41
11 48
11 49
11 50
11 23
11 26
11 71
11 72
11 73
11 74
11 75
12 13
12 14
12 15
12 16
12 19
12 29
12 46
12 51
12 52
12 53
12 20
12 41
12 48
12 67
12 68
12 69
12 70
12 31
12 59
12 62
12 66
12 76
13 14
13 15
13 16
13 20
13 41
13 48
13 67
13 68
13 69
13 70
14 15
14 16
14 31
14 59
14 62
14 66
14 76
15 16
16 19
16 29
16 46
16 51
16 52
16 53
16 28
16 33
16 43
16 71
16 80
17 18
17 19
17 20
17 21
17 22
17 23
17 24
18 19
18 20
18 21
18 22
18 23
18 24
18 37
18 38
18 39
18 40
18 41
18 42
18 43
18 44
18 45
18 46
18 47
18 55
18 63
18 77
18 78
18 79
19 20
19 21
19 22
19 23
19 24
19 30
19 41
19 48
19 49
19 50
19 29
19 46
19 51
19 52
19 53
20 21
20 22
20 23
20 24
20 40
20 46
20 51
20 64
20 65
20 66
20 67
20 41
20 48
20 68
20 69
20 70
21 22
21 23
21 24
22 23
22 24
22 25
22 26
22 27
22 28
22 29
22 30
22 43
22 54
22 55
22 56
22 57
22 58
23 24
23 26
23 48
23 71
23 72
23 73
23 74
23 75
25 26
25 27
25 28
25 29
25 30
26 27
26 28
26 29
26 30
26 48
26 71
26 72
26 73
26 74
26 75
27 28
27 29
27 30
28 29
28 30
28 33
28 43
28 53
28 71
28 80
29 30
29 46
29 51
29 52
29 53
30 31
30 32
30 33
30 34
30 35
30 36
30 41
30 48
30 49
30 50
30 43
30 54
30 55
30 56
30 57
30 58
30 37
30 59
30 60
30 61
30 62
30 63
31 32
31 33
31 34
31 35
31 36
31 59
31 62
31 66
31 76
31 44
31 49
31 51
31 67
31 82
31 83
32 33
32 34
32 35
32 36
33 34
33 35
33 36
33 37
33 50
33 59
33 60
33 61
33 62
33 63
33 43
33 53
33 71
33 80
33 66
33 68
33 69
33 81
34 35
34 36
35 36
37 38
37 39
37 40
37 41
37 42
37 50
37 59
37 60
37 61
37 62
37 63
38 39
38 40
38 41
38 42
39 40
39 41
39 42
40 41
40 42
40 46
40 51
40 64
40 65
40 66
40 67
41 42
41 48
41 49
41 50
41 67
41 68
41 69
41 70
42 46
42 55
42 63
42 77
42 78
42 79
43 44
43 45
43 46
43 47
43 54
43 55
43 56
43 57
43 58
43 53
43 71
43 80
44 45
44 46
44 47
44 49
44 51
44 67
44 82
44 83
45 46
45 47
46 47
46 51
46 52
46 53
46 64
46 65
46 66
46 67
46 55
46 63
46 77
46 78
46 79
48 49
48 50
48 67
48 68
48 69
48 70
48 71
48 72
48 73
48 74
48 75
49 50
49 51
49 67
49 82
49 83
50 59
50 60
50 61
50 62
50 63
51 52
51 53
51 64
51 65
51 66
51 67
51 82
51 83
52 53
53 71
53 80
54 55
54 56
54 57
54 58
55 56
55 57
55 58
55 63
55 77
55 78
55 79
56 57
56 58
57 58
59 60
59 61
59 62
59 63
59 66
59 76
60 61
60 62
60 63
61 62
61 63
61 66
61 68
61 69
61 80
61 81
62 63
62 66
62 76
63 77
63 78
63 79
64 65
64 66
64 67
65 66
65 67
66 67
66 76
66 68
66 69
66 80
66 81
67 68
67 69
67 70
67 82
67 83
68 69
68 70
68 80
68 81
69 70
69 80
69 81
71 72
71 73
71 74
71 75
71 80
72 73
72 74
72 75
73 74
73 75
74 75
77 78
77 79
78 79
80 81
82 83
